(set-info :min-time 27.760845234)
; Start decls (23)
(declare-fun b10 () (_ FloatingPoint 8 24))
(declare-fun b11 () (_ FloatingPoint 8 24))
(declare-fun b120 () (_ FloatingPoint 8 24))
(declare-fun b14 () (_ FloatingPoint 8 24))
(declare-fun b17 () (_ FloatingPoint 8 24))
(declare-fun b20 () (_ FloatingPoint 8 24))
(declare-fun b23 () (_ FloatingPoint 8 24))
(declare-fun b26 () (_ FloatingPoint 8 24))
(declare-fun b29 () (_ FloatingPoint 8 24))
(declare-fun b32 () (_ FloatingPoint 8 24))
(declare-fun b35 () (_ FloatingPoint 8 24))
(declare-fun b38 () (_ FloatingPoint 8 24))
(declare-fun b41 () (_ FloatingPoint 8 24))
(declare-fun b44 () (_ FloatingPoint 8 24))
(declare-fun b47 () (_ FloatingPoint 8 24))
(declare-fun b50 () (_ FloatingPoint 8 24))
(declare-fun b53 () (_ FloatingPoint 8 24))
(declare-fun b56 () (_ FloatingPoint 8 24))
(declare-fun b59 () (_ FloatingPoint 8 24))
(declare-fun b62 () (_ FloatingPoint 8 24))
(declare-fun b65 () (_ FloatingPoint 8 24))
(declare-fun b68 () (_ FloatingPoint 8 24))
(declare-fun b71 () (_ FloatingPoint 8 24))
; End decls
; Start constraints (41)
(assert (fp.lt b11 b71))
(assert (let ((a!1 (fp.div roundNearestTiesToEven
                   (fp.div roundNearestTiesToEven
                           (fp.div roundNearestTiesToEven
                                   (fp.div roundNearestTiesToEven b10 b11)
                                   b14)
                           b17)
                   b20)))
(let ((a!2 (fp.div roundNearestTiesToEven
                   (fp.div roundNearestTiesToEven
                           (fp.div roundNearestTiesToEven
                                   (fp.div roundNearestTiesToEven a!1 b23)
                                   b26)
                           b29)
                   b32)))
(let ((a!3 (fp.div roundNearestTiesToEven
                   (fp.div roundNearestTiesToEven
                           (fp.div roundNearestTiesToEven
                                   (fp.div roundNearestTiesToEven a!2 b35)
                                   b38)
                           b41)
                   b44)))
(let ((a!4 (fp.div roundNearestTiesToEven
                   (fp.div roundNearestTiesToEven
                           (fp.div roundNearestTiesToEven
                                   (fp.div roundNearestTiesToEven a!3 b47)
                                   b50)
                           b53)
                   b56)))
(let ((a!5 (fp.div roundNearestTiesToEven
                   (fp.div roundNearestTiesToEven
                           (fp.div roundNearestTiesToEven
                                   (fp.div roundNearestTiesToEven a!4 b59)
                                   b62)
                           b65)
                   b68)))
  (fp.lt a!5 b71)))))))
(assert (fp.lt b120 b11))
(assert (fp.lt b14 b71))
(assert (fp.lt b120 b14))
(assert (fp.lt b17 b71))
(assert (fp.lt b120 b17))
(assert (fp.lt b20 b71))
(assert (fp.lt b120 b20))
(assert (fp.lt b23 b71))
(assert (fp.lt b120 b23))
(assert (fp.lt b26 b71))
(assert (fp.lt b120 b26))
(assert (fp.lt b29 b71))
(assert (fp.lt b120 b29))
(assert (fp.lt b32 b71))
(assert (fp.lt b120 b32))
(assert (fp.lt b35 b71))
(assert (fp.lt b120 b35))
(assert (fp.lt b38 b71))
(assert (fp.lt b120 b38))
(assert (fp.lt b41 b71))
(assert (fp.lt b120 b41))
(assert (fp.lt b44 b71))
(assert (fp.lt b120 b44))
(assert (fp.lt b47 b71))
(assert (fp.lt b120 b47))
(assert (fp.lt b50 b71))
(assert (fp.lt b120 b50))
(assert (fp.lt b53 b71))
(assert (fp.lt b120 b53))
(assert (fp.lt b56 b71))
(assert (fp.lt b120 b56))
(assert (fp.lt b59 b71))
(assert (fp.lt b120 b59))
(assert (fp.lt b62 b71))
(assert (fp.lt b120 b62))
(assert (fp.lt b65 b71))
(assert (fp.lt b120 b65))
(assert (fp.lt b68 b71))
(assert (fp.lt b120 b68))
; End constraints
(check-sat)
